8430
26, 47, 27, 13, 14, 52, 11, 25, 46, 44, 34, 35, 49, 32, 45, 19, 8, 10, 9, 41, 3, 17, 21, 42, 7, 2, 30, 29, 16, 50, 20, 23, 31, 18, 22, 1, 36, 39, 40, 38, 37, 48, 24, 5, 6, 15, 4, 43, 33, 51, 12, 28
